# Single point calculation

SystemName          $name
SystemLabel         $name

LongOutput
WriteCoorXmol
NumberOfAtoms          $na
NumberOfSpecies        2

xc.functional          GGA
xc.authors             PBE

%block ChemicalSpeciesLabel
  1   8  O
  2   1  H  
%endblock ChemicalSpeciesLabel

%block AtomicMass
  2   2.0
%endblock AtomicMass

%Block PAO.Basis
O    2     -0.24233
n=2   0   1   E    23.36061     3.39721
     4.50769 
     1.00000 
n=2   1   1   E     2.78334     5.14253
     6.14996 
     1.00000 
H    1      0.46527
n=1   0   1   E    99.93138     2.59932
     4.20357  
     1.00000  
%EndBlock PAO.Basis


#LatticeConstant       9.865 Ang    # Lattice constant alat (3% larger)
%block LatticeVectors
$lattice
%endblock LatticeVectors   

MeshCutoff           150.0 Ry       # Mesh cutoff. real space mesh

# SCF options
MaxSCFIterations      75            # Maximum number of SCF iter
DM.MixingWeight       0.1           # New DM amount for next SCF cycle
DM.Tolerance          1.d-4         # Tolerance in maximum difference
DM.NumberPulay         3
DM.UseSaveDM     T

SolutionMethod        diagon        # OrderN or Diagon
ElectronicTemperature  5 meV        # Temp. for Fermi smearing

AtomicCoordinatesFormat  Ang

%block AtomicCoordinatesAndAtomicSpecies 
$coord
%endblock AtomicCoordinatesAndAtomicSpecies
